c Lingeling SAT Solver
c 
c Version ala b02aa1a04343558c4252b5f4a723be021964f652
c 
c Copyright (C) 2010-2012 Armin Biere JKU Linz Austria.
c All rights reserved.
c 
c released Sat Oct 13 14:05:26 CEST 2012
c compiled Sat Feb 16 02:48:12 EST 2013
c 
c gcc (Debian 4.4.5-8) 4.4.5
c -Wall -O3 -DNLGLOG -DNDEBUG -DNCHKSOL -DNLGLPICOSAT 
c Linux greencar2 2.6.32-5-amd64 x86_64
c 
c reading input file p48.cnf
c no embedded options
c found 'p cnf 232714 721939' header
c read 232714 variables, 721939 clauses, 1502252 literals in 0.0 seconds
c
c feature vars 232714
c feature lits.total 1502252
c feature lits.pos 800004
c feature lits.neg 702248
c feature clauses.total 721939
c feature clauses.unit 86640
c feature clauses.bin 508485
c feature clauses.trn 125414
c feature clauses.lrg 1400
c feature cog.val.min 1
c feature cog.val.avg 103705
c feature cog.val.max 224005
c feature cog.var.min 1
c feature cog.var.avg 116358
c feature cog.var.max 232713
c
c
c --abstime=0
c --acts=2
c --actavgmax=120
c --actstdmin=20
c --actstdmax=80
c --agile=23
c --bias=2
c --block=1
c --blkrtc=0
c --blkclslim=2000
c --blkocclim=2000
c --blkmaxeff=2147483647
c --blkmineff=10000000
c --blkreleff=20
c --card=0
c --cce=3
c --ccemaxeff=100000000
c --ccemineff=5000000
c --ccereleff=3
c --check=0
c --cgrclsr=1
c --cgrmaxority=20
c --cgrmaxeff=8000000
c --cgrmineff=200000
c --cgreleff=1
c --cgrexteq=1
c --cgrextand=1
c --cgrextunits=1
c --cgrextite=1
c --cgrextxor=1
c --cliff=1
c --cliffreleff=8
c --cliffmineff=10000000
c --cliffmaxeff=100000000
c --compact=0
c --decompose=1
c --defragint=10000000
c --defragfree=50
c --elim=1
c --elmrtc=0
c --elmblk=1
c --elmclslim=1000
c --elmocclim=1000
c --elmaxeff=100000000
c --elmineff=5000000
c --elmreleff=10
c --sleeponabort=0
c --exitonabort=0
c --flipping=1
c --flipint=2
c --flipdur=50
c --fliptop=1
c --force=0
c --gauss=1
c --gaussextrall=1
c --gaussmaxor=20
c --gaussexptrn=1
c --gaussmaxeff=50000000
c --gaussmineff=2000000
c --gaussreleff=2
c --gluescale=2
c --gluekeep=0
c --inprocessing=1
c --cintinc=10000
c --irrlim=20
c --lift=1
c --lftmaxeff=20000000
c --lftmineff=500000
c --lftreleff=6
c --lhbr=1
c --lkhd=1
c --clim=-1
c --mocint=1000
c --move=2
c --log=-1
c --otfs=1
c --phase=0
c --phaseneginit=0
c --plain=0
c --probe=1
c --prbasicmaxeff=100000000
c --prbasicmineff=1000000
c --prbasicreleff=10
c --prbasic=1
c --prbasicroundlim=9
c --queuemergelim=10000
c --queuefactor=833
c --queueinc=20
c --rmincpen=4
c --seed=0
c --smallirr=90
c --smallve=1
c --smallvevars=12
c --randec=1
c --randecint=1000
c --redfixed=0
c --redlbound=0
c --redlexpfac=10
c --redldoutfac=0
c --redloutinc=10000
c --redlinit=1000
c --redlinc=1000
c --redinoutinc=100
c --redlmininc=10
c --redlmaxinc=200
c --redlminrel=10
c --redlmaxrel=300
c --redlminabs=500
c --redlmaxabs=1000000
c --reduce=1
c --restart=2
c --restartint=5
c --rstinoutinc=110
c --simplify=1
c --simpdelay=100
c --simpen=4
c --sizepen=1000000
c --sizemaxpen=3
c --sortlits=0
c --syncint=111111
c --termint=122222
c --ternres=1
c --ternresrtc=0
c --trnrmineff=4000000
c --trnrmaxeff=40000000
c --trnreleff=10
c --transred=1
c --trdmineff=100000
c --trdmaxeff=2000000
c --trdreleff=10
c --unhide=1
c --unhdextstamp=1
c --unhdhbr=0
c --unhdmaxeff=20000000
c --unhdmineff=1000000
c --unhdreleff=4
c --unhdlnpr=3
c --unhdroundlim=5
c --verbose=1
c --witness=1
c [limits] no conflict limit
c [limits] simplification delayed by 100 to 100 conflicts
c 
c  seconds         irredundant          redundant clauses agility   height
c          variables clauses conflicts large binary ternary    glue         MB
c 
c *    0.0  128814   540637         0       0      0     0  65  0.0   0.0   42
c [cut-width] 180221, max 279029, min4 120864 at 75%, min10 33947 at 90%
c [decision-order] bias 1, old 1
c [queue-schedule-all-variables]
c s    0.0  128814   540637         0       0      0     0  65  0.0   0.0   42
c [simplification-1] limit hit at 100 conflicts
c [simplification-1] simplification penalty of 4
c [ternres-1] limit 4000000 with penalty 0 = 0 + 0
c [ternres-1] all 128814 free variables schedulable
c [ternres-1] 0 ternary resolvents (0 bin, 0 trn)
c [ternres-1] 28972 variables remain 22% (99842 retained)
c [gauss-1] limit 2000000 penalty 0 = 0 + 0
c [gauss-1] extracted 165473 xors of average arity 2.0
c [gauss-1] connected 330950 occurrences of 113775 variables (average 2.9)
c [gauss-1] limit 2000000 penalty 0 = 0 + 0
c d    1.5   59447   269978       100     100      0     0  60  6.6 335.9   21
c [gauss-1] exported 0 unary, 3 binary and 0 ternary equations
c G    1.5   59447   269978       100     100      0     0  60  6.6 335.9   21
c [basicprobe-1] limit 1000000 penalty 0 = 0 + 0
c [basicprobe-1-0] 4184 probes remain 7% after last round
c [basicprobe-1-0] removed 0 variables, found 3283 hbrs
c p    1.8   59447   269978       100     100   3283     0  60  6.6 335.9   26
c [cgrclsr-1] limit 200000 penalty 0 = 0 + 0
c [cgrclsr-1] all 59447 free variables schedulable
c [cgrclsr-1] fully completed congruence closure
c [lift-1] limit 500000 with penalty 0 = 0 + 0
c [lift-1] using 59447 probes 100%
c [lift-1] 59412 variables remain 100% (35 retained)
c [cliff-1] limit of 10000000 steps penalty 0 = 0 + 0
c [cliff-1] failed 0, lifted 4
c K    2.7   59443   269978       100     100  15864     0  60  6.6 335.9   26
c [unhide-1] limit 1000000 with penalty 0 = 0 + 0
c [unhide-1-1] 0 units, 1 failed, 22075 tauts, 0 hbrs, 81 literals
c u    3.0   59442   247884       100     100  15864     0  60  6.6 335.9   26
c [transred-1] limit 100000 with penalty 0 = 0 + 0
c t    3.0   59442   247883       100     100  15854     0  60  6.6 335.9   26
c [block-1] scheduling all variables this time
c [block-1] scheduled 59442 variables 100%
c [block-1] limit of 10000000 steps penalty 0 = 0 + 0
c [block-1] fully completed blocked clause elimination
c [block-1] transition to [ all 0 rem 0 ] state
c [block-1] eliminated 4600 blocked clauses
c k    3.3   59442   243279       100     100  15854  4600  60  6.6 335.9   21
c [cce-1] scheduling all variables this time
c [cce-1] limit of 10000000 steps penalty 0 = 0 + 0
c [cce-1] incomplete covered clause elimination 53779 not tried 90%
c [cce-1] transition to [ all 1 rem 1 ] state
c [cce-1] eliminated 150 covered clauses
c E    4.0   59439   243129       100     100  24373  4599  60  6.6 335.9   22
c [elim-1] scheduling all variables this time
c [elim-1] scheduled 59439 variables 100%
c [elim-1] limit of 5000000 steps penalty 0 = 0 + 0
c [elim-1] incomplete variable elimination 44558 not tried 75%
c [elim-1] transition to [ all 1 rem 1 ] state
c [elim-1] eliminated 6472 = 11% variables out of 59439
c e    5.6   52967   239113       100      60   7573   599  60  6.6 335.9   21
c [phase-1] phase bias: 1556 positive 14%, 9962 negative 86%
c [simplification-1] removed 75847 variables 58%
c [simplification-1] limit increments divided by 30
c [simplification-1] arithmetic increase of conflict limit interval by 333
c [simplification-1] new irredundant limit 2363670
c [simplification-1] new conflict limit 433
c [simplification-1] simplification penalty reduced to 3
c [simplification-2] limit hit at 433 conflicts
c [simplification-2] simplification penalty of 3
c [ternres-2] limit 2000000 with penalty 1 = 1 + 0
c [ternres-2] 11902 schedulable variables 22%
c [ternres-2] 19 ternary resolvents (0 bin, 19 trn)
c [ternres-2] fully completed ternary resolution
c T    5.8   52967   239113       433     368   7573   643  24 10.4 668.1   26
c [gauss-2] limit 2000000 penalty 0 = 0 + 0
c [gauss-2] extracted 876 xors of average arity 3.0
c [gauss-2] connected 2628 occurrences of 1518 variables (average 1.7)
c [gauss-2] limit 2000000 penalty 0 = 0 + 0
c [gauss-2] fully completed
c [gauss-2] exported 0 unary, 0 binary and 0 ternary equations
c G    6.0   52967   239113       433     368   7573   643  24 10.4 668.1   21
c [basicprobe-2] limit 500000 penalty 1 = 1 + 0
c [basicprobe-2-0] 4308 probes remain 8% after last round
c [basicprobe-2-0] removed 0 variables, found 706 hbrs
c p    6.2   52967   239113       433     368   8278   643  24 10.4 668.1   26
c [cgrclsr-2] limit 100000 penalty 1 = 1 + 0
c [cgrclsr-2] all 52967 free variables schedulable
c [cgrclsr-2] fully completed congruence closure
c [lift-2] limit 250000 with penalty 1 = 1 + 0
c [lift-2] using 52932 probes 100%
c [lift-2] 52910 variables remain 100% (57 retained)
c [cliff-2] limit of 10000000 steps penalty 0 = 0 + 0
c [cliff-2] failed 1, lifted 0
c K    7.1   52966   239113       433     368   9827   642  24 10.4 668.1   26
c [unhide-2] limit 1000000 with penalty 0 = 0 + 0
c [unhide-2-2] 0 units, 0 failed, 1521 tauts, 0 hbrs, 307 literals
c u    7.3   52966   239104       433     368   8307   641  24 10.4 668.1   26
c [transred-3] limit 100000 with penalty 0 = 0 + 0
c t    7.4   52966   239101       433     368   8303   641  24 10.4 668.1   26
c [block-2] scheduling all variables this time
c [block-2] scheduled 52966 variables 100%
c [block-2] limit of 10000000 steps penalty 0 = 0 + 0
c [block-2] fully completed blocked clause elimination
c [block-2] transition to [ all 0 rem 0 ] state
c [block-2] eliminated 0 blocked clauses
c [cce-2] 50092 variables 95% will be scheduled this time
c [cce-2] limit of 10000000 steps penalty 0 = 0 + 0
c [cce-2] 49568 variables 94% remain to be tried next time
c [cce-2] transition to [ all 0 rem 1 ] state
c [cce-2] eliminated 364 covered clauses
c E    8.2   52966   238737       433     368   8804   641  24 10.4 668.1   21
c [elim-2] 44493 variables 84% will be scheduled this time
c [elim-2] scheduled 44493 variables 84%
c [elim-2] limit of 5000000 steps penalty 0 = 0 + 0
c [elim-2] 34528 variables 65% remain to be tried next time
c [elim-2] transition to [ all 0 rem 1 ] state
c [elim-2] eliminated 973 = 2% variables out of 52966
c e    9.8   51993   238323       433     366   6848   641  24 10.4 668.1   21
c [phase-2] phase bias: 3 positive 75%, 1 negative 25%
c [simplification-2] removed 974 variables 1%
c [simplification-2] no reduction of limit increments
c [simplification-2] arithmetic increase of conflict limit interval by 10000
c [simplification-2] new irredundant limit 2363670
c [simplification-2] new conflict limit 10766
c [simplification-2] simplification penalty reduced to 2
c R   10.2   51993   238323       982     841   6866   694   3  8.6 411.7   26
c -   10.4   51993   238323      1203     503   6881   730   3  7.8 358.9   26
c R   11.0   51993   238323      2276    1466   6904   807   6  8.9 284.7   26
c -   12.4   51993   238323      4182    1612   6983  1010   4  8.3 230.3   26
c 
c  seconds         irredundant          redundant clauses agility   height
c          variables clauses conflicts large binary ternary    glue         MB
c 
c 1   12.6   51993   238323      4905    2328   6983  1017   8  9.3 262.7   27
c 
c  seconds         irredundant          redundant clauses agility   height
c          variables clauses conflicts large binary ternary    glue         MB
c 
c blkd: 2 bces, 4600 removed, 1418379 resolutions, 3940971 steps
c blkd: 4600 blocking literals 1%, 0 pure
c cces: 2 cces, 478 eliminated, 478 ate 100%, 0 abce 0%
c cces: 12374 probed, 1 lifted, 3 failed
c clff: 2 cliffs, 4 lifted, 1 failed
c clff: 8413 decisions, 20002292 steps
c clls: 1 sat, 0 simp, 0 freeze, 0 melt
c clls: 2224191 add, 0 assume,, 0 deref, 0 failed
c clls: 0 cassume, 0 mosat
c coll: 14 gcs, 0 rescored clauses
c cgrs: 2 count, 300008 esteps, 62030 csteps
c cgrs: 0 eqs, 0 units
c cgrs: 0 matched (0 ands 0%, 0 xors 0%, 0 ites 0%)
c cgrs: 0 simplified (0 ands 0%, 0 xors 0%, 0 ites 0%)
c cgrs: 1936 extracted (1646 ands 85%, 290 xors 15%, 0 ites 0%)
c dcps: 3 decompositions, 69367 equivalent 30%
c decs: 72658 decision, 72 random 0.099%
c decs: 17592 flipped 24.212% (in 29 phases)
c elms: 2 elims, 7445 eliminated 3%
c elms: 7445 small 100%, 0 large 0%
c elms: 24984 tried small, 7445 succeeded 30%, 17539 failed 70%
c elms: 0 subsumed, 0 strengthened, 0 blocked
c elms: 314817 copies, 218951 resolutions, 649248 ipos
c elms: 0 subchks, 0 strchks
c frcs: 0 computed, 29.8 - 70.2 average min-cut range
c gaus: 2 extractions, 166349 extracted, 2.0 size, 3 max
c gaus: exported 0 units, 3 binary and 0 ternary equations
c gaus: 0 gc, 8000108 steps, 4000054 extr 50%, 2337307 elim 29%
c glue: 9.3 avg, 3.0 scaled avg
c glue: 0 maxredglue=15 (0%)
c lift: 2 phases, 342 probed (114 level1 33%, 228 level2 67%)
c lift: 0 units, 0 equivalences, 1 implications
c hbrs: 26661 hbrs = 26661 trn 100% + 0 lrg 0%, 3 sub 0%
c lrnd: 4870 clauses, 2955 uips 61%, 37.4 length, 9.3 glue
c ints: 255 luby (28447 steps), 0 inout (0 steps)
c mins: 182164 learned lits, 4% minimized
c move: moved 5078, 478 binary 9%, 4600 ternary 91%
c otfs: str 150 dyn (121 red, 29 irr) 35 drv 23%, 115 rst 77%
c otfs: sub 2 dyn (2 red, 0 irr)
c phas: 2 computed, 11618 set, 1559 pos (13%), 10059 neg (87%)
c prbs: 2 basic, 1722 probed, 0 failed, 0 lifted
c prps: 15990017 props, 127 props/dec
c prps: 58% srch, 42% simp, 0% lkhd
c psns: 739085 searches, 115114 hits, 16% hit rate
c queu: 21891 new, 8529 del, 120 maximum priority
c queu: 13343 merged, 11123 collected, 3 gcs
c queu: 5020 deprioritized, 26.2 lines on average
c reds: 2 count, 0 reset, 2 acts 100%, 0 exp 0%
c reds: 2 arithmetic 100%, 2 double 100%
c rmbd: 3 removed, 0 red 0%
c rsts: 203 restarts 80%, 51 skipped 20%
c rsts: 33 kept 16.3% average 38.9%
c simp: 2 count (0 ilim 0%, 0 plim 0%, 2 clim 100%)
c trnr: 2 count, 0 bin, 19 trn, 4961337 steps
c tops: 103909 fixed 45%, 0 iterations
c trds: 4 transitive reductions, 18 removed, 0 failed
c trds: 249 nodes, 318 edges, 200992 steps
c unhd: 2 count, 2 rounds, 2513607 steps
c unhd: 0 non-trivial sccs of average size 0.0
c unhd: 0 units, 0 bin, 0 trn, 0 lrg
c unhd: 1 failed, 1 stamp, 0 lits, 0 bin, 0 trn, 0 lrg
c unhd: 23596 tauts, 0 bin 0%, 0 trn 0%, 0 lrg 0%
c unhd: 23596 tauts, 23596 stamp 100%, 1521 red 6%
c unhd: 0 hbrs, 0 trn 0%, 0 lrg 0%, 0 red 0%
c unhd: 388 strd, 0 bin 0%, 2 trn 1%, 386 lrg 99%, 387 red 100%
c vars: 51993 remaining 22% and 180721 removed 78% out of 232714
c vars: 103909 fixed 45%, 7445 eliminated 3%, 69367 equivalent 30%
c vsts: 77014846 visits, 60% srch, 40% simp, 0% lkhd
c vsts: 5.0 search visits per propagation 9394.3 per conflict
c wchs: 9577724 pushed, 4307245 enlarged, 23 defrags
c 
c scaledglue  added       reduced       forcing      resolved     conflicts
c 
c all      4339 100      1962 100     21516 100      9331 100       749 100
c 
c  0          0   0         0   0         0   0         0   0         0   0 
c  1         38   1        15   1       590   3        77   1         7   1 
c  2       1321  30       777  40      7384  34      2237  24       134  18 
c  3       1258  29<      609  31<     7188  33<     2639  28<      180  24 
c  4       1036  24       328  17      5197  24      3023  32       333  44<
c  5        413  10        98   5       750   3       833   9        61   8 
c  6        145   3        65   3       228   1       285   3        21   3 
c  7         83   2        47   2       127   1       158   2         8   1 
c  8         28   1        14   1        30   0        48   1         3   0 
c  9          9   0         2   0        13   0        17   0         2   0 
c 10          8   0         7   0         9   0        14   0         0   0 
c 11          0   0         0   0         0   0         0   0         0   0 
c 12          0   0         0   0         0   0         0   0         0   0 
c 13          0   0         0   0         0   0         0   0         0   0 
c 14          0   0         0   0         0   0         0   0         0   0 
c 15          0   0         0   0         0   0         0   0         0   0 
c 
c avg             3.3           3.1           3.0           3.5           3.6
c std             1.3           1.4           1.0           1.2           1.1
c 
c 72658 decisions, 4905 conflicts, 388.3 conflicts/sec
c 15990017 propagations, 1.3 megaprops/sec
c 12.6 seconds, 49.4 MB
c 
c    0.444   4% analysis
c    0.532   4% block
c    0.024   0% bump
c    0.000   0% card
c    1.332  11% cce
c    1.140   9% cliff
c    0.024   0% cutwidth
c    0.128   1% decide
c    0.000   0% force
c    1.056   8% gc
c    0.336   3% cgrclsr
c    0.564   4% decomp
c    0.284   2% defrag
c    3.160  25% elim
c    1.576  12% gauss
c    0.316   3% lift
c    0.104   1% mincls
c    0.080   1% phase
c    0.156   1% probe
c    0.016   0% reduce
c    0.236   2% restart
c    0.148   1% ternres
c    0.020   0% transred
c    0.484   4% unhide
c ==================================
c    0.032   0% preprocessing     0%
c    9.741  77% inprocessing    100%
c ==================================
c    9.773  77% simplifying
c    0.000   0% lookahead
c    2.840  22% search
c ==================================
c   12.633 100% all
c
s SATISFIABLE
